p cnf 16 16
c 1 string_bfd_file_ptr_EQ_BFD_HOST_64_BIT
c 2 string_BFD_HOST_U_64_BIT_EQ_unsigned_long_long
c 3 string_BFD_HOST_64_BIT_EQ_long_long
c 4 string_BFD_HOSTPTR_T_EQ_unsigned_long
c 5 int_wordsize_EQ_32
c 6 int_wordsize_EQ_OTHERVAL
c 7 int_supports_plugins_EQ_0
c 8 int_supports_plugins_EQ_OTHERVAL
c 9 int_bfd_default_target_size_EQ_32
c 10 int_bfd_default_target_size_EQ_OTHERVAL
c 11 int_BFD_HOST_64_BIT_DEFINED_EQ_1
c 12 int_BFD_HOST_64_BIT_DEFINED_EQ_OTHERVAL
c 13 int_BFD_HOST_64BIT_LONG_LONG_EQ_1
c 14 int_BFD_HOST_64BIT_LONG_LONG_EQ_OTHERVAL
c 15 int_BFD_HOST_64BIT_LONG_EQ_0
c 16 int_BFD_HOST_64BIT_LONG_EQ_OTHERVAL
-16 -17 0
16 17 0
-14 -15 0
14 15 0
-12 -13 0
12 13 0
-10 -11 0
10 11 0
-8 -9 0
8 9 0
-6 -7 0
6 7 0
5 0
4 0
3 0
2 0